n=10;
m=20;
w=[4 6 3 5 7 2 8 4 6 3 5 7 4 6 3 5 7 2 8 4];
c=[3 5 2 4 6 1 7 3 4 2 4 5 3 5 2 4 6 1 7 3];
t=[
    [0 6 0 0 4 0 0 0 0 0]
    [6 0 5 0 0 3 0 0 0 0]
    [0 5 0 7 0 0 4 0 0 0]
    [0 0 7 0 8 0 0 5 0 0]
    [4 0 0 8 0 6 0 0 3 0]
    [0 3 0 0 6 0 5 0 0 4]
    [0 0 4 0 0 5 0 7 0 0]
    [0 0 0 5 0 0 7 0 6 0]
    [0 0 0 0 3 0 0 6 0 5]
    [0 0 0 0 0 4 0 0 5 0]
];
